Problem:    ModelGLPK_pseudobactin_A
Rows:       71
Columns:    160 (160 integer, 160 binary)
Non-zeros:  1089
Status:     INTEGER OPTIMAL
Objective:  number_of_installed_atoms = 66 (MAXimum)

   No.   Row name        Activity     Lower bound   Upper bound
------ ------------    ------------- ------------- -------------
     1 Atom_Owner[a0]
                                   1                           1 
     2 Atom_Owner[a1]
                                   1                           1 
     3 Atom_Owner[a2]
                                   1                           1 
     4 Atom_Owner[a3]
                                   1                           1 
     5 Atom_Owner[a4]
                                   1                           1 
     6 Atom_Owner[a5]
                                   1                           1 
     7 Atom_Owner[a6]
                                   1                           1 
     8 Atom_Owner[a7]
                                   1                           1 
     9 Atom_Owner[a8]
                                   1                           1 
    10 Atom_Owner[a9]
                                   1                           1 
    11 Atom_Owner[a10]
                                   1                           1 
    12 Atom_Owner[a11]
                                   1                           1 
    13 Atom_Owner[a12]
                                   1                           1 
    14 Atom_Owner[a13]
                                   1                           1 
    15 Atom_Owner[a14]
                                   1                           1 
    16 Atom_Owner[a15]
                                   1                           1 
    17 Atom_Owner[a16]
                                   1                           1 
    18 Atom_Owner[a17]
                                   1                           1 
    19 Atom_Owner[a18]
                                   1                           1 
    20 Atom_Owner[a19]
                                   1                           1 
    21 Atom_Owner[a20]
                                   1                           1 
    22 Atom_Owner[a21]
                                   0                           1 
    23 Atom_Owner[a22]
                                   1                           1 
    24 Atom_Owner[a23]
                                   1                           1 
    25 Atom_Owner[a24]
                                   1                           1 
    26 Atom_Owner[a25]
                                   1                           1 
    27 Atom_Owner[a26]
                                   1                           1 
    28 Atom_Owner[a27]
                                   1                           1 
    29 Atom_Owner[a28]
                                   1                           1 
    30 Atom_Owner[a29]
                                   1                           1 
    31 Atom_Owner[a30]
                                   1                           1 
    32 Atom_Owner[a31]
                                   1                           1 
    33 Atom_Owner[a32]
                                   1                           1 
    34 Atom_Owner[a33]
                                   1                           1 
    35 Atom_Owner[a34]
                                   1                           1 
    36 Atom_Owner[a35]
                                   1                           1 
    37 Atom_Owner[a36]
                                   1                           1 
    38 Atom_Owner[a37]
                                   1                           1 
    39 Atom_Owner[a38]
                                   1                           1 
    40 Atom_Owner[a39]
                                   1                           1 
    41 Atom_Owner[a40]
                                   1                           1 
    42 Atom_Owner[a41]
                                   1                           1 
    43 Atom_Owner[a42]
                                   1                           1 
    44 Atom_Owner[a43]
                                   1                           1 
    45 Atom_Owner[a44]
                                   1                           1 
    46 Atom_Owner[a45]
                                   1                           1 
    47 Atom_Owner[a46]
                                   1                           1 
    48 Atom_Owner[a47]
                                   1                           1 
    49 Atom_Owner[a48]
                                   1                           1 
    50 Atom_Owner[a49]
                                   1                           1 
    51 Atom_Owner[a50]
                                   1                           1 
    52 Atom_Owner[a51]
                                   1                           1 
    53 Atom_Owner[a52]
                                   1                           1 
    54 Atom_Owner[a53]
                                   1                           1 
    55 Atom_Owner[a54]
                                   1                           1 
    56 Atom_Owner[a55]
                                   0                           1 
    57 Atom_Owner[a56]
                                   1                           1 
    58 Atom_Owner[a57]
                                   1                           1 
    59 Atom_Owner[a58]
                                   1                           1 
    60 Atom_Owner[a59]
                                   0                           1 
    61 Atom_Owner[a60]
                                   0                           1 
    62 Atom_Owner[a61]
                                   1                           1 
    63 Atom_Owner[a62]
                                   1                           1 
    64 Atom_Owner[a63]
                                   1                           1 
    65 Atom_Owner[a64]
                                   1                           1 
    66 Atom_Owner[a65]
                                   1                           1 
    67 Atom_Owner[a66]
                                   1                           1 
    68 Atom_Owner[a67]
                                   1                           1 
    69 Atom_Owner[a68]
                                   1                           1 
    70 Atom_Owner[a69]
                                   1                           1 
    71 number_of_installed_atoms
                                  66                             

   No. Column name       Activity     Lower bound   Upper bound
------ ------------    ------------- ------------- -------------
     1 install[m0]  *              1             0             1 
     2 install[m1]  *              1             0             1 
     3 install[m2]  *              1             0             1 
     4 install[m3]  *              1             0             1 
     5 install[m4]  *              1             0             1 
     6 install[m5]  *              0             0             1 
     7 install[m6]  *              0             0             1 
     8 install[m7]  *              0             0             1 
     9 install[m8]  *              0             0             1 
    10 install[m9]  *              0             0             1 
    11 install[m10] *              0             0             1 
    12 install[m11] *              0             0             1 
    13 install[m12] *              0             0             1 
    14 install[m13] *              0             0             1 
    15 install[m14] *              0             0             1 
    16 install[m15] *              0             0             1 
    17 install[m16] *              1             0             1 
    18 install[m17] *              0             0             1 
    19 install[m18] *              1             0             1 
    20 install[m19] *              0             0             1 
    21 install[m20] *              0             0             1 
    22 install[m21] *              0             0             1 
    23 install[m22] *              0             0             1 
    24 install[m23] *              0             0             1 
    25 install[m24] *              0             0             1 
    26 install[m25] *              0             0             1 
    27 install[m26] *              0             0             1 
    28 install[m27] *              0             0             1 
    29 install[m28] *              0             0             1 
    30 install[m29] *              0             0             1 
    31 install[m30] *              0             0             1 
    32 install[m31] *              0             0             1 
    33 install[m32] *              0             0             1 
    34 install[m33] *              0             0             1 
    35 install[m34] *              0             0             1 
    36 install[m35] *              0             0             1 
    37 install[m36] *              0             0             1 
    38 install[m37] *              0             0             1 
    39 install[m38] *              0             0             1 
    40 install[m39] *              0             0             1 
    41 install[m40] *              0             0             1 
    42 install[m41] *              0             0             1 
    43 install[m42] *              0             0             1 
    44 install[m43] *              0             0             1 
    45 install[m44] *              0             0             1 
    46 install[m45] *              0             0             1 
    47 install[m46] *              0             0             1 
    48 install[m47] *              0             0             1 
    49 install[m48] *              0             0             1 
    50 install[m49] *              0             0             1 
    51 install[m50] *              0             0             1 
    52 install[m51] *              0             0             1 
    53 install[m52] *              0             0             1 
    54 install[m53] *              0             0             1 
    55 install[m54] *              0             0             1 
    56 install[m55] *              0             0             1 
    57 install[m56] *              0             0             1 
    58 install[m57] *              0             0             1 
    59 install[m58] *              0             0             1 
    60 install[m59] *              0             0             1 
    61 install[m60] *              0             0             1 
    62 install[m61] *              0             0             1 
    63 install[m62] *              0             0             1 
    64 install[m63] *              0             0             1 
    65 install[m64] *              0             0             1 
    66 install[m65] *              0             0             1 
    67 install[m66] *              0             0             1 
    68 install[m67] *              0             0             1 
    69 install[m68] *              0             0             1 
    70 install[m69] *              0             0             1 
    71 install[m70] *              0             0             1 
    72 install[m71] *              0             0             1 
    73 install[m72] *              0             0             1 
    74 install[m73] *              0             0             1 
    75 install[m74] *              0             0             1 
    76 install[m75] *              0             0             1 
    77 install[m76] *              0             0             1 
    78 install[m77] *              0             0             1 
    79 install[m78] *              0             0             1 
    80 install[m79] *              0             0             1 
    81 install[m80] *              0             0             1 
    82 install[m81] *              0             0             1 
    83 install[m82] *              0             0             1 
    84 install[m83] *              0             0             1 
    85 install[m84] *              0             0             1 
    86 install[m85] *              0             0             1 
    87 install[m86] *              0             0             1 
    88 install[m87] *              0             0             1 
    89 install[m88] *              0             0             1 
    90 install[m89] *              0             0             1 
    91 install[m90] *              0             0             1 
    92 install[m91] *              0             0             1 
    93 install[m92] *              0             0             1 
    94 install[m93] *              0             0             1 
    95 install[m94] *              0             0             1 
    96 install[m95] *              0             0             1 
    97 install[m96] *              0             0             1 
    98 install[m97] *              0             0             1 
    99 install[m98] *              1             0             1 
   100 install[m99] *              0             0             1 
   101 install[m100]
                    *              0             0             1 
   102 install[m101]
                    *              0             0             1 
   103 install[m102]
                    *              0             0             1 
   104 install[m103]
                    *              0             0             1 
   105 install[m104]
                    *              0             0             1 
   106 install[m105]
                    *              0             0             1 
   107 install[m106]
                    *              0             0             1 
   108 install[m107]
                    *              0             0             1 
   109 install[m108]
                    *              0             0             1 
   110 install[m109]
                    *              0             0             1 
   111 install[m110]
                    *              0             0             1 
   112 install[m111]
                    *              0             0             1 
   113 install[m112]
                    *              0             0             1 
   114 install[m113]
                    *              0             0             1 
   115 install[m114]
                    *              0             0             1 
   116 install[m115]
                    *              0             0             1 
   117 install[m116]
                    *              0             0             1 
   118 install[m117]
                    *              0             0             1 
   119 install[m118]
                    *              0             0             1 
   120 install[m119]
                    *              0             0             1 
   121 install[m120]
                    *              0             0             1 
   122 install[m121]
                    *              0             0             1 
   123 install[m122]
                    *              0             0             1 
   124 install[m123]
                    *              0             0             1 
   125 install[m124]
                    *              0             0             1 
   126 install[m125]
                    *              0             0             1 
   127 install[m126]
                    *              0             0             1 
   128 install[m127]
                    *              0             0             1 
   129 install[m128]
                    *              0             0             1 
   130 install[m129]
                    *              0             0             1 
   131 install[m130]
                    *              0             0             1 
   132 install[m131]
                    *              0             0             1 
   133 install[m132]
                    *              0             0             1 
   134 install[m133]
                    *              0             0             1 
   135 install[m134]
                    *              0             0             1 
   136 install[m135]
                    *              0             0             1 
   137 install[m136]
                    *              0             0             1 
   138 install[m137]
                    *              0             0             1 
   139 install[m138]
                    *              0             0             1 
   140 install[m139]
                    *              0             0             1 
   141 install[m140]
                    *              0             0             1 
   142 install[m141]
                    *              0             0             1 
   143 install[m142]
                    *              0             0             1 
   144 install[m143]
                    *              0             0             1 
   145 install[m144]
                    *              0             0             1 
   146 install[m145]
                    *              0             0             1 
   147 install[m146]
                    *              0             0             1 
   148 install[m147]
                    *              0             0             1 
   149 install[m148]
                    *              0             0             1 
   150 install[m149]
                    *              0             0             1 
   151 install[m150]
                    *              0             0             1 
   152 install[m151]
                    *              0             0             1 
   153 install[m152]
                    *              0             0             1 
   154 install[m153]
                    *              0             0             1 
   155 install[m154]
                    *              0             0             1 
   156 install[m155]
                    *              0             0             1 
   157 install[m156]
                    *              0             0             1 
   158 install[m157]
                    *              0             0             1 
   159 install[m158]
                    *              0             0             1 
   160 install[m159]
                    *              0             0             1 

Integer feasibility conditions:

KKT.PE: max.abs.err = 0.00e+00 on row 0
        max.rel.err = 0.00e+00 on row 0
        High quality

KKT.PB: max.abs.err = 0.00e+00 on row 0
        max.rel.err = 0.00e+00 on row 0
        High quality

End of output
